param set_len = 20;
param target = 2931850;
param values := [0] 465426 [1] 332418 [2] 161131 [3] 31574 [4] 434732 [5] 130980 [6] 475052 [7] 515977 [8] 264939 [9] 167204 [10] 480447 [11] 378644 [12] 30324 [13] 197994 [14] 402204 [15] 131439 [16] 159839 [17] 88526 [18] 385922 [19] 11048 ;
